c This is QMaxSAT 2017 based on 14.07
c This is Glucose 3.0
c This is MiniSat 2.2.0
c WARNING: for repeatability, setting FPU to use double precision
c card = mrwto, comp = 0, pmodel = 0, narr = 3, mct = 24, verb = 0
cr firstCPXsol 0 0 0
c top = 81479
c |  Number of variables:    1636637                                          |
c |  Number of clauses:      81411588                                         |
c |  Weight of hard clauses: 81479                                            |
c |  Number of soft clauses: 1656                                             |
c |  Number of unit soft clauses: 1656                                        |
c |  Maximum Cardinality (by unit): 244434       (244434      )               |
c last restart ## conflicts  :  211 182376 
o 1563 | cpuTime 13.7767 s
c Sum of weights = 81478
c A number of soft clauses remained = 552
c MRWTO encoding for Pseudo-Boolean Constraints
c sizeMax=1563
c No.0 Divisor=12	generated by pow1
c No.1 Divisor=12	generated by pow1
c No.2 Divisor=12	generated by pow1
c p0= 12	p1= 12	p2= 12	
c number of digits = 4
c linkingVar[0].size = 12, linkingVar[1].size = 12, linkingVar[2].size = 11, linkingVar[3].size = 1, 
c Pseudo-Boolean Constraints: 12172 variables and 117969 clauses
c Sum of weights = 81478
c A number of soft clauses remained = 552
c MRWTO encoding for Pseudo-Boolean Constraints
c sizeMax=1563
c No.0 Divisor=12	generated by pow1
c No.1 Divisor=12	generated by pow1
c No.2 Divisor=12	generated by pow1
c p0= 12	p1= 12	p2= 12	
c number of digits = 4
c linkingVar[0].size = 12, linkingVar[1].size = 12, linkingVar[2].size = 11, linkingVar[3].size = 1, 
c Pseudo-Boolean Constraints: 12172 variables and 117969 clauses
c Sum of weights = 81478
c A number of soft clauses remained = 552
c MRWTO encoding for Pseudo-Boolean Constraints
c sizeMax=1563
c No.0 Divisor=12	generated by pow1
c No.1 Divisor=12	generated by pow1
c No.2 Divisor=12	generated by pow1
c p0= 12	p1= 12	p2= 12	
c number of digits = 4
c linkingVar[0].size = 12, linkingVar[1].size = 12, linkingVar[2].size = 11, linkingVar[3].size = 1, 
c Pseudo-Boolean Constraints: 12172 variables and 117969 clauses
c last restart ## conflicts  :  183 181408 
o 1538 | cpuTime 152.339 s
c last restart ## conflicts  :  107 183087 
o 1442 | cpuTime 184.848 s
c last restart ## conflicts  :  671 179400 
o 1428 | cpuTime 240.953 s
c last restart ## conflicts  :  73 174949 
o 1361 | cpuTime 870.05 s
c last restart ## conflicts  :  269 176941 
o 1336 | cpuTime 1209.59 s
c last restart ## conflicts  :  400 178371 
o 1161 | cpuTime 1763.22 s
c last restart ## conflicts  :  114 183474 
o 1017 | cpuTime 2263.57 s
c last restart ## conflicts  :  336 191069 
o 996 | cpuTime 2532.09 s
c last restart ## conflicts  :  628 189137 
o 909 | cpuTime 2611.65 s
c last restart ## conflicts  :  181 199677 
o 879 | cpuTime 2837.5 s
c last restart ## conflicts  :  594 206734 
o 861 | cpuTime 2999.42 s
s UNKNOWN
c Search is stopped by a limit (maybe time-limit)
cr positiVarArr: [ | 16@1(1->16) | 25@1(2->1) | 59@1(3->11) | 147@1(7->3) | 261@1(11->21) | 338@1(15->2) | 367@1(16->7) | 495@1(21->15) | 590@2(1->14) | 745@2(8->1) | 906@2(14->18) | 968@2(17->8) | 1003@2(18->19) | 1025@2(19->17) | 1158@3(1->6) | 1225@3(4->1) | 1258@3(5->10) | 1296@3(6->24) | 1367@3(9->23) | 1390@3(10->22) | 1420@3(12->4) | 1449@3(13->9) | 1621@3(20->13) | 1676@3(22->20) | 1692@3(23->12) | 1709@3(24->5) | ]
cr the 1-th chain: [ 1->16->7->3->11->21->15->2->1 ] (#non-depot=7) {#cumul.=8}
cr the 2-th chain: [ 1->14->18->19->17->8->1 ] (#non-depot=5) {#cumul.=13}
cr the 3-th chain: [ 1->6->24->5->10->22->20->13->9->23->12->4->1 ] (#non-depot=11) {#cumul.=24}
c Latest Answer = 0 by 12 loops
c restarts              : 16274
c conflicts             : 2127129        (591 /sec)
c decisions             : 18385009       (0.00 % random) (5110 /sec)
c propagations          : 20509492752    (5700312 /sec)
c conflict literals     : 264785303      (21.94 % deleted)
c Memory used           : 9154.00 MB
c CPU time              : 3597.96 s
